0000000000000000
0000000000000000
0000000000000000
0000100000000000
0001111111110000
0000000001100000
0000000001100000
0000000001100000
0000000001100000
0000000001100000
0000000001100000
0000000001000000
0000000000000000
0000000000000000
0000000000000000
0000000000000000
